34.0 31.0 0
45.0 55.0 26
70.0 80.0 17
81.0 70.0 6
85.0 61.0 15
59.0 55.0 7
45.0 60.0 5
50.0 64.0 15
80.0 64.0 16
75.0 90.0 17
25.0 40.0 1
9.0 66.0 21
1.0 44.0 66
50.0 54.0 25
35.0 45.0 16
71.0 84.0 11
1.0 9.0 7
25.0 54.0 17
45.0 59.0 17
45.0 71.0 22
66.0 84.0 10
11.0 35.0 25
81.0 46.0 16
85.0 10.0 7
75.0 20.0 21
15.0 21.0 11
90.0 45.0 21
15.0 0.0 11
31.0 26.0 21
10.0 95.0 22
6.0 6.0 25
51.0 5.0 2
26.0 36.0 22
